# Objective value = 1.0435314985190950e+05
e[1] 991.2117934
e[2] 991.0402734
e[3] 9.8941281765926283e+02
e[4] 9.8778536191852436e+02
e[5] 9.8615790617779055e+02
e[6] 9.8453045043705424e+02
e[7] 9.8290299469631793e+02
e[8] 9.8273147469588184e+02
e[9] 9.8255995469560548e+02
e[10] 9.8238843469554649e+02
e[11] 9.8261712802899376e+02
e[12] 9.8284582136297786e+02
e[13] 9.8307451469664659e+02
e[14] 9.8290299469611807e+02
e[15] 9.8273147469559569e+02
e[16] 9.8255995469569734e+02
e[17] 9.8238843469554649e+02
e[18] 9.8270274437157821e+02
e[19] 9.8301705404793017e+02
e[20] 983.331363724369
e[21] 9.8364567339999769e+02
e[22] 9.8536087339999972e+02
e[23] 9.8707607339999993e+02
e[24] 988.7912734
e[25] 988.9627934
e[26] 989.1343134
pi[1] 0
pi[2] 1
pi[3] 0
pi[4] 0
pi[5] 0
pi[6] 0
pi[7] 1
pi[8] 0
pi[9] 0
pi[10] 1
pi[11] 0
pi[12] 0
pi[13] 1
pi[14] 0
pi[15] 0
pi[16] 0
pi[17] 1
pi[18] 0
pi[19] 0
pi[20] 0
pi[21] 1
pi[22] 0
pi[23] 0
pi[24] 1
pi[25] 0
e_bar 9.8238843469554649e+02
B_minus_s[0] 0
B_minus_s[1] 0
B_minus_s[2] 1
B_minus_s[3] 1
B_minus_s[4] 1
B_minus_s[5] 1
B_minus_s[6] 1
B_minus_s[7] 1
B_minus_s[8] 1
B_minus_s[9] 1
B_minus_s[10] 0
B_minus_s[11] 0
B_minus_s[12] 0
B_minus_s[13] 1
B_minus_s[14] 1
B_minus_s[15] 1
B_minus_s[16] 1
B_minus_s[17] 0
B_minus_s[18] 0
B_minus_s[19] 0
B_minus_s[20] 0
B_minus_s[21] 0
B_minus_s[22] 0
B_minus_s[23] 0
B_minus_s[24] 0
B_minus_s[25] 0
B_add_s[0] 0
B_add_s[1] 0
B_add_s[2] 0
B_add_s[3] 0
B_add_s[4] 0
B_add_s[5] 0
B_add_s[6] 0
B_add_s[7] 0
B_add_s[8] 0
B_add_s[9] 0
B_add_s[10] 1
B_add_s[11] 1
B_add_s[12] 1
B_add_s[13] 0
B_add_s[14] 0
B_add_s[15] 0
B_add_s[16] 0
B_add_s[17] 1
B_add_s[18] 1
B_add_s[19] 1
B_add_s[20] 1
B_add_s[21] 1
B_add_s[22] 1
B_add_s[23] 1
B_add_s[24] 1
B_add_s[25] 0
g_s[0] 0.17152
g_s[1] 0.17152
g_s[2] 1.6274557407372185e+00
g_s[3] 1.6274557397564808e+00
g_s[4] 1.6274557407365364e+00
g_s[5] 1.6274557400562628e+00
g_s[6] 1.6274557407363091e+00
g_s[7] 1.7152000043608950e-01
g_s[8] 1.7152000027635950e-01
g_s[9] 0.17152
g_s[10] 2.2869333452079221e-01
g_s[11] 2.2869333398414660e-01
g_s[12] 2.2869333366873079e-01
g_s[13] 1.7152000052851690e-01
g_s[14] 1.7152000019893876e-01
g_s[15] 0.17152
g_s[16] 1.7152000015171820e-01
g_s[17] 3.1430967635194718e-01
g_s[18] 3.1430967635194718e-01
g_s[19] 3.1430967481668437e-01
g_s[20] 3.1430967562646023e-01
g_s[21] 1.7152000004472256e+00
g_s[22] 1.7152000000002090e+00
g_s[23] 1.7152000000000953e+00
g_s[24] 0.17152
g_s[25] 0.17152
eth_minus_s[0] 0
eth_minus_s[1] 0
eth_minus_s[2] 0
eth_minus_s[3] 0
eth_minus_s[4] 0
eth_minus_s[5] 0
eth_minus_s[6] 0
eth_minus_s[7] 0
eth_minus_s[8] 0
eth_minus_s[9] 0
eth_minus_s[10] 0
eth_minus_s[11] 0
eth_minus_s[12] 0
eth_minus_s[13] 0
eth_minus_s[14] 0
eth_minus_s[15] 0
eth_minus_s[16] 0
eth_minus_s[17] 0
eth_minus_s[18] 0
eth_minus_s[19] 0
eth_minus_s[20] 0
eth_minus_s[21] 0
eth_minus_s[22] 0
eth_minus_s[23] 0
eth_minus_s[24] 0
eth_minus_s[25] 0
eth_add_s[0] 0
eth_add_s[1] 0
eth_add_s[2] 0
eth_add_s[3] 0
eth_add_s[4] 0
eth_add_s[5] 0
eth_add_s[6] 0
eth_add_s[7] 0
eth_add_s[8] 0
eth_add_s[9] 0
eth_add_s[10] 2.2869333398414660e-01
eth_add_s[11] 2.2869333398400504e-01
eth_add_s[12] 2.2869333366861339e-01
eth_add_s[13] 0
eth_add_s[14] 0
eth_add_s[15] 0
eth_add_s[16] 0
eth_add_s[17] 3.1430967619139255e-01
eth_add_s[18] 3.1430967635194718e-01
eth_add_s[19] 3.1430967562822681e-01
eth_add_s[20] 3.1430967562804646e-01
eth_add_s[21] 1.7152000004472114e+00
eth_add_s[22] 1.7152000000002090e+00
eth_add_s[23] 1.7152000000000953e+00
eth_add_s[24] 1.7151999999999340e-01
eth_add_s[25] 0
L2R_v[0] 0.1
L2R_v[1] 1.3587513128651812e+01
L2R_v[2] 1.6099095757415505e+01
L2R_v[3] 1.6880707380470636e+01
L2R_v[4] 17.6211346875213
L2R_v[5] 1.8325435453030362e+01
L2R_v[6] 1.8997689027989882e+01
L2R_v[7] 1.8943531419384822e+01
L2R_v[8] 1.8889704622210619e+01
L2R_v[9] 1.8836207152554056e+01
L2R_v[10] 1.8585002765165829e+01
L2R_v[11] 1.8332648415678936e+01
L2R_v[12] 1.8079076013286539e+01
L2R_v[13] 1.8030606190003819e+01
L2R_v[14] 1.7982441228274983e+01
L2R_v[15] 1.7934579708841870e+01
L2R_v[16] 1.7887020215927759e+01
L2R_v[17] 1.7586182611728667e+01
L2R_v[18] 1.7282872860025506e+01
L2R_v[19] 1.6976934630490391e+01
L2R_v[20] 1.6668199172909148e+01
L2R_v[21] 1.5544494515755160e+01
L2R_v[22] 1.4344294282821931e+01
L2R_v[23] 1.2061204592449219e+01
L2R_v[24] 1.0201549190420769e+01
L2R_v[25] 0.1
L2R_v2[0] 1.0000000000000002e-02
L2R_v2[1] 1.8462051302128526e+02
L2R_v2[2] 2.5918088420643392e+02
L2R_v2[3] 2.8495828166507579e+02
L2R_v2[4] 3.1050438767576645e+02
L2R_v2[5] 3.3582158454318210e+02
L2R_v2[6] 360.912188404207
L2R_v2[7] 3.5885738263721970e+02
L2R_v2[8] 3.5682094071436495e+02
L2R_v2[9] 3.5480269989392832e+02
L2R_v2[10] 3.4540232778122117e+02
L2R_v2[11] 3.3608599793289528e+02
L2R_v2[12] 3.2685298949419257e+02
L2R_v2[13] 3.2510275957900376e+02
L2R_v2[14] 3.2336819252836358e+02
L2R_v2[15] 3.2164914933280238e+02
L2R_v2[16] 3.1994549220500835e+02
L2R_v2[17] 3.0927381885306806e+02
L2R_v2[18] 2.9869769429580606e+02
L2R_v2[19] 2.8821630944794390e+02
L2R_v2[20] 2.7782886366776904e+02
L2R_v2[21] 2.4163130975034210e+02
L2R_v2[22] 2.0575877847219795e+02
L2R_v2[23] 1.4547265622091811e+02
L2R_v2[24] 1.0407160588457465e+02
L2R_v2[25] 1.0000000000000002e-02
L2R_E_hat[0] 5.0000000000000010e-03
L2R_E_hat[1] 9.2310256510642631e+01
L2R_E_hat[2] 1.2959044210321696e+02
L2R_E_hat[3] 1.4247914083253789e+02
L2R_E_hat[4] 1.5525219383788323e+02
L2R_E_hat[5] 1.6791079227159105e+02
L2R_E_hat[6] 1.8045609420210349e+02
L2R_E_hat[7] 1.7942869131860985e+02
L2R_E_hat[8] 1.7841047035718248e+02
L2R_E_hat[9] 1.7740134994696416e+02
L2R_E_hat[10] 1.7270116389061059e+02
L2R_E_hat[11] 1.6804299896644764e+02
L2R_E_hat[12] 1.6342649474709629e+02
L2R_E_hat[13] 1.6255137978950188e+02
L2R_E_hat[14] 1.6168409626418179e+02
L2R_E_hat[15] 1.6082457466640119e+02
L2R_E_hat[16] 1.5997274610250417e+02
L2R_E_hat[17] 1.5463690942653403e+02
L2R_E_hat[18] 1.4934884714790303e+02
L2R_E_hat[19] 1.4410815472397195e+02
L2R_E_hat[20] 1.3891443183388452e+02
L2R_E_hat[21] 1.2081565487517105e+02
L2R_E_hat[22] 1.0287938923609897e+02
L2R_E_hat[23] 7.2736328110459056e+01
L2R_E_hat[24] 5.2035802942287326e+01
L2R_E_hat[25] 5.0000000000000010e-03
L2R_a[1] 1.0763206216259635e+00
L2R_a[2] 4.3470365662982269e-01
L2R_a[3] 1.5028799824303185e-01
L2R_a[4] 1.4893951731980959e-01
L2R_a[5] 1.4760492426639882e-01
L2R_a[6] 1.4628383780914089e-01
L2R_a[7] -1.1979977652684326e-02
L2R_a[8] -1.1872912292130389e-02
L2R_a[9] -1.1766795791267270e-02
L2R_a[10] -5.4806273941867767e-02
L2R_a[11] -5.4316288760518416e-02
L2R_a[12] -5.3830506253427668e-02
L2R_a[13] -1.0204232212178921e-02
L2R_a[14] -1.0112914204660095e-02
L2R_a[15] -1.0022406690551489e-02
L2R_a[16] -9.9327024708268929e-03
L2R_a[17] -6.2218244822428381e-02
L2R_a[18] -6.1661173914477674e-02
L2R_a[19] -6.1108820243294781e-02
L2R_a[20] -6.0561134445984488e-02
L2R_a[21] -2.1103984326858433e-01
L2R_a[22] -2.0914488851530177e-01
L2R_a[23] -3.5148158961807185e-01
L2R_a[24] -2.4137739235274858e-01
L2R_a[25] -0.606702459681522
L2R_f[1] 200
L2R_f[2] 52.4791340929406
L2R_f[3] 0
L2R_f[4] 0
L2R_f[5] 0
L2R_f[6] 0
L2R_f[7] 0
L2R_f[8] 0
L2R_f[9] 0
L2R_f[10] 0
L2R_f[11] 0
L2R_f[12] 0
L2R_f[13] 0
L2R_f[14] 0
L2R_f[15] 0
L2R_f[16] 0
L2R_f[17] 0
L2R_f[18] 0
L2R_f[19] 0
L2R_f[20] 0
L2R_f[21] 0
L2R_f[22] 0
L2R_f[23] 0
L2R_f[24] 0
L2R_f[25] 0
L2R_b[1] 0
L2R_b[2] 0
L2R_b[3] 1.8904103171735194e-08
L2R_b[4] 0
L2R_b[5] 2.8932194595654447e-07
L2R_b[6] 0
L2R_b[7] 0
L2R_b[8] 0
L2R_b[9] 0
L2R_b[10] 0
L2R_b[11] 0
L2R_b[12] 0
L2R_b[13] 0
L2R_b[14] 0
L2R_b[15] 0
L2R_b[16] 0
L2R_b[17] 0
L2R_b[18] 0
L2R_b[19] 0
L2R_b[20] 1.7373854355184903e-08
L2R_b[21] 0
L2R_b[22] 1.6567497596042819e-08
L2R_b[23] 2.6981965709957876e+01
L2R_b[24] 3.8111661022733131e+01
L2R_b[25] 1.0687144845990548e+02
L2R_f_max[1] 200
L2R_f_max[2] 200
L2R_f_max[3] 200
L2R_f_max[4] 200
L2R_f_max[5] 200
L2R_f_max[6] 200
L2R_f_max[7] 200
L2R_f_max[8] 200
L2R_f_max[9] 200
L2R_f_max[10] 200
L2R_f_max[11] 200
L2R_f_max[12] 200
L2R_f_max[13] 200
L2R_f_max[14] 200
L2R_f_max[15] 200
L2R_f_max[16] 200
L2R_f_max[17] 200
L2R_f_max[18] 200
L2R_f_max[19] 200
L2R_f_max[20] 200
L2R_f_max[21] 200
L2R_f_max[22] 200
L2R_f_max[23] 200
L2R_f_max[24] 200
L2R_f_max[25] 200
L2R_b_max[1] 200
L2R_b_max[2] 200
L2R_b_max[3] 200
L2R_b_max[4] 200
L2R_b_max[5] 200
L2R_b_max[6] 200
L2R_b_max[7] 200
L2R_b_max[8] 200
L2R_b_max[9] 200
L2R_b_max[10] 200
L2R_b_max[11] 200
L2R_b_max[12] 200
L2R_b_max[13] 200
L2R_b_max[14] 200
L2R_b_max[15] 200
L2R_b_max[16] 200
L2R_b_max[17] 200
L2R_b_max[18] 200
L2R_b_max[19] 200
L2R_b_max[20] 200
L2R_b_max[21] 200
L2R_b_max[22] 200
L2R_b_max[23] 200
L2R_b_max[24] 200
L2R_b_max[25] 200
L2R_gamma[1] 1
L2R_gamma[2] 1
L2R_gamma[3] 0
L2R_gamma[4] 0
L2R_gamma[5] 0
L2R_gamma[6] 0
L2R_gamma[7] 0
L2R_gamma[8] 0
L2R_gamma[9] 0
L2R_gamma[10] 0
L2R_gamma[11] 0
L2R_gamma[12] 0
L2R_gamma[13] 0
L2R_gamma[14] 0
L2R_gamma[15] 0
L2R_gamma[16] 0
L2R_gamma[17] 0
L2R_gamma[18] 0
L2R_gamma[19] 0
L2R_gamma[20] 0
L2R_gamma[21] 0
L2R_gamma[22] 0
L2R_gamma[23] 0
L2R_gamma[24] 0
L2R_gamma[25] 0
L2R_t[1] 1.2623354868473122e+01
L2R_t[2] 5.8193423477093233e+00
L2R_t[3] 5.2036815410584127e+00
L2R_t[4] 4.9736193852453114e+00
L2R_t[5] 4.7733585867569888e+00
L2R_t[6] 4.5970337505224288e+00
L2R_t[7] 4.5206861415964621e+00
L2R_t[8] 4.5335891172579785e+00
L2R_t[9] 4.5464864025427660e+00
L2R_t[10] 4.5837034641021930e+00
L2R_t[11] 4.6462331496366147e+00
L2R_t[12] 4.7107991018100925e+00
L2R_t[13] 4.7499811289340421e+00
L2R_t[14] 4.7627268198075114e+00
L2R_t[15] 4.7754602162253477e+00
L2R_t[16] 4.7881809495745
L2R_t[17] 4.8355469290416453e+00
L2R_t[18] 4.9193468719685320e+00
L2R_t[19] 5.0068488802218951e+00
L2R_t[20] 5.0983433369063746e+00
L2R_t[21] 5.3310963817038264e+00
L2R_t[22] 5.7478748350655984e+00
L2R_t[23] 6.5445423556350173e+00
L2R_t[24] 7.75848361848352
L2R_t[25] 1.6813132672148978e+01
L2R_Psi_t[1] 7.3596985006131321e-02
L2R_Psi_t[2] 0.0621152898938056
L2R_Psi_t[3] 5.9239222782835749e-02
L2R_Psi_t[4] 5.6750034394432845e-02
L2R_Psi_t[5] 5.4568962498221907e-02
L2R_Psi_t[6] 0.0526379813106041
L2R_Psi_t[7] 5.2788467887075426e-02
L2R_Psi_t[8] 5.2938890257934183e-02
L2R_Psi_t[9] 5.3089244129724232e-02
L2R_Psi_t[10] 5.3806825462211723e-02
L2R_Psi_t[11] 5.4547492393120539e-02
L2R_Psi_t[12] 5.5312561287152479e-02
L2R_Psi_t[13] 5.5461252354033479e-02
L2R_Psi_t[14] 5.5609802212373355e-02
L2R_Psi_t[15] 5.5758206561539507e-02
L2R_Psi_t[16] 5.5906461105776323e-02
L2R_Psi_t[17] 5.6862823620009204e-02
L2R_Psi_t[18] 5.7860750819555828e-02
L2R_Psi_t[19] 5.8903448812485312e-02
L2R_Psi_t[20] 5.9994483484772709e-02
L2R_Psi_t[21] 6.4331458252723989e-02
L2R_Psi_t[22] 6.9714130251604930e-02
L2R_Psi_t[23] 8.2910458266004267e-02
L2R_Psi_t[24] 0.0980243276128098
L2R_phi_n[1] 2.4292186387277503e+04
L2R_phi_n[2] 6.9931839621635190e+03
L2R_phi_n[3] 1.2848596397675092e+03
L2R_phi_n[4] 1.2280541691963731e+03
L2R_phi_n[5] 1.1786070357199364e+03
L2R_phi_n[6] 1.1350700391188125e+03
L2R_phi_n[7] 1.1162187776556127e+03
L2R_phi_n[8] 1.1194047203106120e+03
L2R_phi_n[9] 1.1225892351957445e+03
L2R_phi_n[10] 1.1317786331116524e+03
L2R_phi_n[11] 1.1472180616386702e+03
L2R_phi_n[12] 1.1631602720518747e+03
L2R_phi_n[13] 1.1728348466503808e+03
L2R_phi_n[14] 1.1759819308166695e+03
L2R_phi_n[15] 1.1791259793149006e+03
L2R_phi_n[16] 1.1822669011295061e+03
L2R_phi_n[17] 0
L2R_phi_n[18] 0
L2R_phi_n[19] 0
L2R_phi_n[20] 0
L2R_phi_n[21] 0
L2R_phi_n[22] 5.7455066123037261e+02
L2R_phi_n[23] 0
L2R_phi_n[24] 0
L2R_phi_n[25] 0
L2R_phi_b[1] 0
L2R_phi_b[2] 0
L2R_phi_b[3] 0
L2R_phi_b[4] 0
L2R_phi_b[5] 2.0464721373514297e-05
L2R_phi_b[6] 2.0464719582946603e-05
L2R_phi_b[7] 2.0464717860477329e-05
L2R_phi_b[8] 0
L2R_phi_b[9] 0
L2R_phi_b[10] 0
L2R_phi_b[11] 0
L2R_phi_b[12] 0
L2R_phi_b[13] 0
L2R_phi_b[14] 0
L2R_phi_b[15] 0
L2R_phi_b[16] 0
L2R_phi_b[17] 1.0745659842314858e+03
L2R_phi_b[18] 1.0931881937707849e+03
L2R_phi_b[19] 1.1126330844937559e+03
L2R_phi_b[20] 1.1329651859791943e+03
L2R_phi_b[21] 1.1846880848230503e+03
L2R_phi_b[22] 760.209923796131
L2R_phi_b[23] 1454.34274569668
L2R_phi_b[24] 1.7241074707741316e+03
L2R_phi_b[25] 3.7362517049220232e+03
L2R_w0[1] 2.0905450000000005e+00
L2R_w0[2] 3.4226909632991420e+00
L2R_w0[3] 3.9319468857644924e+00
L2R_w0[4] 4.1071597631516052e+00
L2R_w0[5] 4.2804656398301910e+00
L2R_w0[6] 4.4519295669703816e+00
L2R_w0[7] 4.6216065771016464e+00
L2R_w0[8] 4.6077195950519
L2R_w0[9] 4.5939552199410372e+00
L2R_w0[10] 4.5803123794055640e+00
L2R_w0[11] 4.5167481576765631e+00
L2R_w0[12] 4.4537189410374722e+00
L2R_w0[13] 4.3912193766424608e+00
L2R_w0[14] 4.3793678779255618e+00
L2R_w0[15] 4.3676211754714576e+00
L2R_w0[16] 4.3559783518098660e+00
L2R_w0[17] 4.3444384974486461e+00
L2R_w0[18] 4.2721244121398829e+00
L2R_w0[19] 4.2004071669509893e+00
L2R_w0[20] 4.1292799707904413e+00
L2R_w0[21] 4.0587359657350088e+00
L2R_w0[22] 3.8124395596316241e+00
L2R_w0[23] 3.5675061440409417e+00
L2R_w0[24] 3.1532720704419703e+00
L2R_w0[25] 2.8659406203158593e+00
L2R_wi[1] -3.4593999999997322e+00
L2R_wi[2] -3.2824279323147493e+01
L2R_wi[3] -3.2824279303367355e+01
L2R_wi[4] -3.2824279323131421e+01
L2R_wi[5] -3.2824279329299785e+01
L2R_wi[6] -3.2824279328320252e+01
L2R_wi[7] -3.4594000087953916e+00
L2R_wi[8] -3.4594000084019640e+00
L2R_wi[9] -3.4594000080881386e+00
L2R_wi[10] 4.6125333396967534e+00
L2R_wi[11] 4.6125333399111810e+00
L2R_wi[12] 4.61253334009799
L2R_wi[13] -3.4594000106524661e+00
L2R_wi[14] -3.4594000105158074e+00
L2R_wi[15] -3.4594000033947765e+00
L2R_wi[16] -3.4594000030467171e+00
L2R_wi[17] 6.3393358982321075e+00
L2R_wi[18] 6.3393358971508889e+00
L2R_wi[19] 6.3393359064231589e+00
L2R_wi[20] 6.3393358900866019e+00
L2R_wi[21] 3.4594000000058863e+01
L2R_wi[22] 34.5939999999761
L2R_wi[23] 34.5940000000046
L2R_wi[24] 3.4593999999997322e+00
L2R_wi[25] 3.4593999999997322e+00
L2R_wtn[1] 2.9900000000000005e-05
L2R_wtn[2] 0.552015333933643
L2R_wtn[3] 7.7495084377723744e-01
L2R_wtn[4] 8.5202526217857666e-01
L2R_wtn[5] 9.2840811915054167e-01
L2R_wtn[6] 1.0041065377841145e+00
L2R_wtn[7] 1.0791274433285789e+00
L2R_wtn[8] 1.0729835740852869e+00
L2R_wtn[9] 1.0668946127359513e+00
L2R_wtn[10] 1.0608600726828457e+00
L2R_wtn[11] 1.0327529600658514e+00
L2R_wtn[12] 1.0048971338193569e+00
L2R_wtn[13] 9.7729043858763587e-01
L2R_wtn[14] 9.7205725114122132e-01
L2R_wtn[15] 9.6687089565980711e-01
L2R_wtn[16] 9.6173095650507912e-01
L2R_wtn[17] 0.956637021692975
L2R_wtn[18] 9.2472871837067361e-01
L2R_wtn[19] 8.9310610594446016e-01
L2R_wtn[20] 8.6176676524935225e-01
L2R_wtn[21] 8.3070830236662951e-01
L2R_wtn[22] 7.2247761615352291e-01
L2R_wtn[23] 6.1521874763187190e-01
L2R_wtn[24] 4.3496324210054516e-01
L2R_wtn[25] 3.1117410159487824e-01
L2R_T 1.4666345285243779e+02
L2R_varpi[0] 60
L2R_varpi[1] 60
L2R_varpi[2] 60
L2R_varpi[3] 6.0000000011580404e+01
L2R_varpi[4] 6.0000000011579125e+01
L2R_varpi[5] 6.0000000027889719e+01
L2R_varpi[6] 6.0000000032701855e+01
L2R_varpi[7] 6.0000000037239879e+01
L2R_varpi[8] 6.0000000037239865e+01
L2R_varpi[9] 6.0000000041464226e+01
L2R_varpi[10] 6.0000000041464304e+01
L2R_varpi[11] 6.0000000041464489e+01
L2R_varpi[12] 6.0000000062090727e+01
L2R_varpi[13] 6.0000000062091004e+01
L2R_varpi[14] 6.0000000062091139e+01
L2R_varpi[15] 6.0000000066384239e+01
L2R_varpi[16] 6.0000000071544370e+01
L2R_varpi[17] 5.1471698613343968e+01
L2R_varpi[18] 4.2795601837385192e+01
L2R_varpi[19] 3.3965180542320404e+01
L2R_varpi[20] 2.4973393362649730e+01
L2R_varpi[21] 15.5711069751651
L2R_varpi[22] 9.5376948937411523e+00
L2R_varpi[23] 1.4523673432735455e+01
L2R_varpi[24] 24.1863954523226
L2R_varpi[25] 60
L2R_kappa_plus[0] 0
L2R_kappa_plus[1] 0
L2R_kappa_plus[2] 500
L2R_kappa_plus[3] 0
L2R_kappa_plus[4] 500
L2R_kappa_plus[5] 0
L2R_kappa_plus[6] 0
L2R_kappa_plus[7] 0
L2R_kappa_plus[8] 0
L2R_kappa_plus[9] 0
L2R_kappa_plus[10] 500
L2R_kappa_plus[11] 0
L2R_kappa_plus[12] 0
L2R_kappa_plus[13] 0
L2R_kappa_plus[14] 0
L2R_kappa_plus[15] 500
L2R_kappa_plus[16] 0
L2R_kappa_plus[17] 0
L2R_kappa_plus[18] 500
L2R_kappa_plus[19] 2.6296964931074529e-07
L2R_kappa_plus[20] 4.9969307218972131e+02
L2R_kappa_plus[21] 2.6735329563891717e-07
L2R_kappa_plus[22] 3.1821568697111866e+02
L2R_kappa_plus[23] 3.7914760017464494e+02
L2R_kappa_plus[24] 4.9061445236523775e+02
L2R_kappa_plus[25] 0
L2R_kappa_minus[0] 500
L2R_kappa_minus[1] 0
L2R_kappa_minus[2] 0
L2R_kappa_minus[3] 500
L2R_kappa_minus[4] 500
L2R_kappa_minus[5] 500
L2R_kappa_minus[6] 500
L2R_kappa_minus[7] 0
L2R_kappa_minus[8] 0
L2R_kappa_minus[9] 500
L2R_kappa_minus[10] 0
L2R_kappa_minus[11] 500
L2R_kappa_minus[12] 0
L2R_kappa_minus[13] 0
L2R_kappa_minus[14] 500
L2R_kappa_minus[15] 0
L2R_kappa_minus[16] 2.2222222222222223e+02
L2R_kappa_minus[17] 2.2222222222222223e+02
L2R_kappa_minus[18] 2.2222222222222223e+02
L2R_kappa_minus[19] 2.2222222222222223e+02
L2R_kappa_minus[20] 2.2222222222222223e+02
L2R_kappa_minus[21] 1.3225930376186852e+02
L2R_kappa_minus[22] 2.2222222222222223e+02
L2R_kappa_minus[23] 2.2222222222222223e+02
L2R_kappa_minus[24] 2.2222222222222223e+02
L2R_kappa_minus[25] 0
L2R_xi[1] 0
L2R_xi[2] 0
L2R_xi[3] 1.4592705923632825e-06
L2R_xi[4] 1.8842306360511442e-07
L2R_xi[5] 2.2331028714688742e-05
L2R_xi[6] 6.0629220024566210e-07
L2R_xi[7] 5.71723856410245e-07
L2R_xi[8] 0
L2R_xi[9] 5.3224040618715690e-07
L2R_xi[10] 0
L2R_xi[11] 0
L2R_xi[12] 0
L2R_xi[13] 0
L2R_xi[14] 0
L2R_xi[15] 5.4090333230760763e-07
L2R_xi[16] 0
L2R_xi[17] 4.9822036885416341e-07
L2R_xi[18] 6.2753704946771937e-07
L2R_xi[19] 0
L2R_xi[20] 1.3407095593720442e-06
L2R_xi[21] 0
L2R_xi[22] 1.5367132800747652e-06
L2R_xi[23] 2082.57604160998
L2R_xi[24] 2.9416104443786385e+03
L2R_xi[25] 8.2487658779293524e+03
R2L_v[0] 0.1
R2L_v[1] 1.0201549190408315e+01
R2L_v[2] 1.3098676389366910e+01
R2L_v[3] 1.4335278182718639e+01
R2L_v[4] 1.5483320944714299e+01
R2L_v[5] 1.6561294433228230e+01
R2L_v[6] 1.7582154108117550e+01
R2L_v[7] 1.7808380776114650e+01
R2L_v[8] 1.8033774403924983e+01
R2L_v[9] 1.8258383026997230e+01
R2L_v[10] 1.8279132737181211e+01
R2L_v[11] 1.8300045899690048e+01
R2L_v[12] 1.8321123634646344e+01
R2L_v[13] 1.8544793975275933e+01
R2L_v[14] 1.8767780555228413e+01
R2L_v[15] 1.8990124498326626e+01
R2L_v[16] 1.9211865114392907e+01
R2L_v[17] 1.9198406435352378e+01
R2L_v[18] 1.9184816858833209e+01
R2L_v[19] 1.9171095008471898e+01
R2L_v[20] 1.9157239491039572e+01
R2L_v[21] 1.8447955973949536e+01
R2L_v[22] 1.7703488116215784e+01
R2L_v[23] 1.6919118921685573e+01
R2L_v[24] 1.3587513128413407e+01
R2L_v[25] 0.1
R2L_v2[0] 1.0000000000000002e-02
R2L_v2[1] 1.0407160588432055e+02
R2L_v2[2] 1.7157532315335811e+02
R2L_v2[3] 205.500200575929
R2L_v2[4] 2.3973322747702835e+02
R2L_v2[5] 2.7427647330407638e+02
R2L_v2[6] 3.0913214308159468e+02
R2L_v2[7] 3.1713842586708961e+02
R2L_v2[8] 3.2521701925165962e+02
R2L_v2[9] 3.3336855076054053e+02
R2L_v2[10] 3.3412669362348970e+02
R2L_v2[11] 3.3489167993076217e+02
R2L_v2[12] 3.3566357123599687e+02
R2L_v2[13] 3.4390938358543053e+02
R2L_v2[14] 3.5222958696920955e+02
R2L_v2[15] 3.6062482846194507e+02
R2L_v2[16] 3.6909576117362695e+02
R2L_v2[17] 3.6857880965697944e+02
R2L_v2[18] 3.6805719790697071e+02
R2L_v2[19] 3.6753088382385613e+02
R2L_v2[20] 3.6699982491704611e+02
R2L_v2[21] 3.4032707961678040e+02
R2L_v2[22] 3.1341349148099346e+02
R2L_v2[23] 2.8625658508613878e+02
R2L_v2[24] 1.8462051302128526e+02
R2L_v2[25] 1.0000000000000002e-02
R2L_E_hat[0] 5.0000000000000010e-03
R2L_E_hat[1] 3.1250019858174062e+02
R2L_E_hat[2] 5.0000000000000010e-03
R2L_E_hat[3] 3.1250019858173664e+02
R2L_E_hat[4] 3.1250019858173664e+02
R2L_E_hat[5] 3.1250019858173630e+02
R2L_E_hat[6] 3.1250019858173630e+02
R2L_E_hat[7] 3.1250019858173710e+02
R2L_E_hat[8] 3.1250019858173613e+02
R2L_E_hat[9] 3.1250019858174005e+02
R2L_E_hat[10] 3.1250019858173613e+02
R2L_E_hat[11] 3.1250019858173664e+02
R2L_E_hat[12] 3.1250019858173664e+02
R2L_E_hat[13] 3.1250019858174062e+02
R2L_E_hat[14] 5.0000000000000010e-03
R2L_E_hat[15] 3.1250019858174016e+02
R2L_E_hat[16] 3.1250019858173664e+02
R2L_E_hat[17] 3.1250019858173664e+02
R2L_E_hat[18] 3.1250019858173710e+02
R2L_E_hat[19] 5.0000000000000010e-03
R2L_E_hat[20] 5.0000000000000010e-03
R2L_E_hat[21] 3.1250019858174028e+02
R2L_E_hat[22] 3.1250019858173664e+02
R2L_E_hat[23] 3.1250019858173613e+02
R2L_E_hat[24] 3.1250019858173613e+02
R2L_E_hat[25] 3.1250019858173664e+02
R2L_a[1] -6.0670245968004044e-01
R2L_a[2] -3.9356178445101470e-01
R2L_a[3] -1.9778963049540110e-01
R2L_a[4] -1.9958621094391549e-01
R2L_a[5] -2.0139485673419294e-01
R2L_a[6] -2.0321635831109702e-01
R2L_a[7] -0.0466784210908075
R2L_a[8] -4.7100008072362476e-02
R2L_a[9] -4.7525253666520106e-02
R2L_a[10] -4.4201426244778186e-03
R2L_a[11] -0.00446004143699702
R2L_a[12] -4.5002991210190690e-03
R2L_a[13] -4.8074932074590737e-02
R2L_a[14] -4.8508648459533288e-02
R2L_a[15] -0.0489461374343263
R2L_a[16] -4.9387434186581647e-02
R2L_a[17] 3.0139430774613896e-03
R2L_a[18] 3.0411132812897534e-03
R2L_a[19] 3.0685289360605772e-03
R2L_a[20] 3.0961923204821939e-03
R2L_a[21] 1.5550807661068888e-01
R2L_a[22] 0.156912244173245
R2L_a[23] 1.5833084420395441e-01
R2L_a[24] 5.9256105448258833e-01
R2L_a[25] 1.0763206216259635e+00
R2L_f[1] 0
R2L_f[2] 0
R2L_f[3] 0
R2L_f[4] 0
R2L_f[5] 0
R2L_f[6] 0
R2L_f[7] 0
R2L_f[8] 0
R2L_f[9] 0
R2L_f[10] 0
R2L_f[11] 0
R2L_f[12] 0
R2L_f[13] 0
R2L_f[14] 0
R2L_f[15] 0
R2L_f[16] 0
R2L_f[17] 0
R2L_f[18] 0
R2L_f[19] 0
R2L_f[20] 1.6628519006189897e-08
R2L_f[21] 0
R2L_f[22] 0
R2L_f[23] 0
R2L_f[24] 1.1137755398037761e+02
R2L_f[25] 200
R2L_b[1] 1.0687144845963084e+02
R2L_b[2] 3.6961078084466862e+01
R2L_b[3] 1.8904067644598402e-08
R2L_b[4] 0
R2L_b[5] 0
R2L_b[6] 0
R2L_b[7] 0
R2L_b[8] 0
R2L_b[9] 0
R2L_b[10] 0
R2L_b[11] 0
R2L_b[12] 0
R2L_b[13] 0
R2L_b[14] 0
R2L_b[15] 0
R2L_b[16] 0
R2L_b[17] 0
R2L_b[18] 0
R2L_b[19] 0
R2L_b[20] 0
R2L_b[21] 0
R2L_b[22] 1.9909784043647963e-08
R2L_b[23] 0
R2L_b[24] 0
R2L_b[25] 0
R2L_f_max[1] 200
R2L_f_max[2] 200
R2L_f_max[3] 200
R2L_f_max[4] 200
R2L_f_max[5] 200
R2L_f_max[6] 200
R2L_f_max[7] 200
R2L_f_max[8] 200
R2L_f_max[9] 200
R2L_f_max[10] 200
R2L_f_max[11] 200
R2L_f_max[12] 200
R2L_f_max[13] 200
R2L_f_max[14] 200
R2L_f_max[15] 200
R2L_f_max[16] 200
R2L_f_max[17] 200
R2L_f_max[18] 200
R2L_f_max[19] 200
R2L_f_max[20] 200
R2L_f_max[21] 200
R2L_f_max[22] 200
R2L_f_max[23] 200
R2L_f_max[24] 200
R2L_f_max[25] 200
R2L_b_max[1] 200
R2L_b_max[2] 200
R2L_b_max[3] 200
R2L_b_max[4] 200
R2L_b_max[5] 200
R2L_b_max[6] 200
R2L_b_max[7] 200
R2L_b_max[8] 200
R2L_b_max[9] 200
R2L_b_max[10] 200
R2L_b_max[11] 200
R2L_b_max[12] 200
R2L_b_max[13] 200
R2L_b_max[14] 200
R2L_b_max[15] 200
R2L_b_max[16] 200
R2L_b_max[17] 200
R2L_b_max[18] 200
R2L_b_max[19] 200
R2L_b_max[20] 200
R2L_b_max[21] 200
R2L_b_max[22] 200
R2L_b_max[23] 200
R2L_b_max[24] 200
R2L_b_max[25] 200
R2L_gamma[1] 0
R2L_gamma[2] 0
R2L_gamma[3] 0
R2L_gamma[4] 0
R2L_gamma[5] 0
R2L_gamma[6] 0
R2L_gamma[7] 0
R2L_gamma[8] 0
R2L_gamma[9] 0
R2L_gamma[10] 0
R2L_gamma[11] 0
R2L_gamma[12] 0
R2L_gamma[13] 0
R2L_gamma[14] 0
R2L_gamma[15] 0
R2L_gamma[16] 0
R2L_gamma[17] 0
R2L_gamma[18] 0
R2L_gamma[19] 0
R2L_gamma[20] 1
R2L_gamma[21] 1
R2L_gamma[22] 0
R2L_gamma[23] 0
R2L_gamma[24] 1
R2L_gamma[25] 1
R2L_t[1] 1.6813132672169662e+01
R2L_t[2] 7.4768963733284552e+00
R2L_t[3] 6.2648352418205224e+00
R2L_t[4] 5.7606537465087175e+00
R2L_t[5] 5.35860130495266
R2L_t[6] 5.02800614118994
R2L_t[7] 4.8466916195662169e+00
R2L_t[8] 4.7856157705644513e+00
R2L_t[9] 4.72627096433454
R2L_t[10] 4.6943546032063743e+00
R2L_t[11] 4.6890078579133121e+00
R2L_t[12] 4.6836313258320974e+00
R2L_t[13] 4.65270702634859
R2L_t[14] 4.5970059199242055e+00
R2L_t[15] 4.5427824364290128e+00
R2L_t[16] 4.4899697810389529e+00
R2L_t[17] 4.4654727534597827e+00
R2L_t[18] 4.4686195368653649e+00
R2L_t[19] 4.4718014408172344e+00
R2L_t[20] 4.47501892930518
R2L_t[21] 4.5626950667425161e+00
R2L_t[22] 4.7464982983444148e+00
R2L_t[23] 4.9565324803453210e+00
R2L_t[24] 5.69024965178225
R2L_t[25] 1.2623354868473120e+01
R2L_Psi_t[1] 9.8024327612929466e-02
R2L_Psi_t[2] 7.6343591541185668e-02
R2L_Psi_t[3] 6.9757976598285532e-02
R2L_Psi_t[4] 6.4585627564697629e-02
R2L_Psi_t[5] 6.0381753614235686e-02
R2L_Psi_t[6] 5.6875852290380474e-02
R2L_Psi_t[7] 5.6153336598757035e-02
R2L_Psi_t[8] 5.5451508796869151e-02
R2L_Psi_t[9] 5.4769362572872904e-02
R2L_Psi_t[10] 0.0547071906735444
R2L_Psi_t[11] 5.4644671684508574e-02
R2L_Psi_t[12] 5.4581805130605635e-02
R2L_Psi_t[13] 5.3923489327150680e-02
R2L_Psi_t[14] 5.3282805447201133e-02
R2L_Psi_t[15] 5.2658949133699368e-02
R2L_Psi_t[16] 5.2051167028589661e-02
R2L_Psi_t[17] 5.2087656512916483e-02
R2L_Psi_t[18] 5.2124552835622874e-02
R2L_Psi_t[19] 5.2161861362540321e-02
R2L_Psi_t[20] 5.2199587548494693e-02
R2L_Psi_t[21] 5.4206547403522952e-02
R2L_Psi_t[22] 5.6486043509359860e-02
R2L_Psi_t[23] 5.9104732618096324e-02
R2L_Psi_t[24] 7.3596985006131321e-02
R2L_phi_n[1] 0
R2L_phi_n[2] 0
R2L_phi_n[3] 1.5468728992149438e+03
R2L_phi_n[4] 1.4223836411132636e+03
R2L_phi_n[5] 1.3231114179022720e+03
R2L_phi_n[6] 1.2414829978246764e+03
R2L_phi_n[7] 1.1967139801398066e+03
R2L_phi_n[8] 1.1816335235961608e+03
R2L_phi_n[9] 1.1669804850208739e+03
R2L_phi_n[10] 1.1590999020262652e+03
R2L_phi_n[11] 1.1577797180032869e+03
R2L_phi_n[12] 1.1564521792178018e+03
R2L_phi_n[13] 1.1488165497157013e+03
R2L_phi_n[14] 1.1350631901047420e+03
R2L_phi_n[15] 1.1216746756614846e+03
R2L_phi_n[16] 1.1086345138367785e+03
R2L_phi_n[17] 1.1025858650517982e+03
R2L_phi_n[18] 1.1033628486087321e+03
R2L_phi_n[19] 1.1041485039054899e+03
R2L_phi_n[20] 1.1049429472680217e+03
R2L_phi_n[21] 1.1265913745043249e+03
R2L_phi_n[22] 1.1719748884801024e+03
R2L_phi_n[23] 0
R2L_phi_n[24] 1.0036020514088423e+04
R2L_phi_n[25] 2.2339731919502850e+04
R2L_phi_b[1] 3.7362517049265921e+03
R2L_phi_b[2] 1.6615325274063237e+03
R2L_phi_b[3] 0
R2L_phi_b[4] 0
R2L_phi_b[5] 1.3877435232956262e-05
R2L_phi_b[6] 0
R2L_phi_b[7] 0
R2L_phi_b[8] 0
R2L_phi_b[9] 0
R2L_phi_b[10] 0
R2L_phi_b[11] 0
R2L_phi_b[12] 0
R2L_phi_b[13] 0
R2L_phi_b[14] 0
R2L_phi_b[15] 0
R2L_phi_b[16] 0
R2L_phi_b[17] 0
R2L_phi_b[18] 0
R2L_phi_b[19] 0
R2L_phi_b[20] 0
R2L_phi_b[21] 0
R2L_phi_b[22] 0
R2L_phi_b[23] 1.1014516622989604e+03
R2L_phi_b[24] 2.8451248258911251e+03
R2L_phi_b[25] 1.7572090209971861e+03
R2L_w0[1] 2.8659406203140851e+00
R2L_w0[2] 3.3331066291126241e+00
R2L_w0[3] 3.5657370299341813e+00
R2L_w0[4] 3.7995025238588847e+00
R2L_w0[5] 4.0345977619221332e+00
R2L_w0[6] 4.2711640402899178e+00
R2L_w0[7] 4.3254218997420057e+00
R2L_w0[8] 4.3801416142942520e+00
R2L_w0[9] 4.4353277336080863e+00
R2L_w0[10] 4.44045900937706
R2L_w0[11] 4.4456363693669161e+00
R2L_w0[12] 4.4508602246535141e+00
R2L_w0[13] 4.5066499742630022e+00
R2L_w0[14] 4.5629165647411014e+00
R2L_w0[15] 4.6196646050862444e+00
R2L_w0[16] 4.6768987257496262e+00
R2L_w0[17] 4.6734066458368195e+00
R2L_w0[18] 4.6698829916118747e+00
R2L_w0[19] 4.66632747593809
R2L_w0[20] 4.6627398089729875e+00
R2L_w0[21] 4.4824159860537778e+00
R2L_w0[22] 4.3001818781653727e+00
R2L_w0[23] 4.1159751684924215e+00
R2L_w0[24] 3.4226909632968057e+00
R2L_w0[25] 2.0905450000000005e+00
R2L_wi[1] 3.4593999999997322e+00
R2L_wi[2] 3.2824279323147493e+01
R2L_wi[3] 3.2824279303367355e+01
R2L_wi[4] 3.2824279323131421e+01
R2L_wi[5] 3.2824279329299785e+01
R2L_wi[6] 3.2824279328320252e+01
R2L_wi[7] 3.4594000087953916e+00
R2L_wi[8] 3.4594000084019640e+00
R2L_wi[9] 3.4594000080881386e+00
R2L_wi[10] -4.6125333396967534e+00
R2L_wi[11] -4.6125333399111810e+00
R2L_wi[12] -4.61253334009799
R2L_wi[13] 3.4594000106524661e+00
R2L_wi[14] 3.4594000105158074e+00
R2L_wi[15] 3.4594000033947765e+00
R2L_wi[16] 3.4594000030467171e+00
R2L_wi[17] -6.3393358982321075e+00
R2L_wi[18] -6.3393358971508889e+00
R2L_wi[19] -6.3393359064231589e+00
R2L_wi[20] -6.3393358900866019e+00
R2L_wi[21] -3.4594000000058863e+01
R2L_wi[22] -34.5939999999761
R2L_wi[23] -34.5940000000046
R2L_wi[24] -3.4593999999997322e+00
R2L_wi[25] -3.4593999999997322e+00
R2L_wtn[1] 3.1117410159411846e-01
R2L_wtn[2] 5.1301021622854082e-01
R2L_wtn[3] 6.1444559972202772e-01
R2L_wtn[4] 7.1680235015631477e-01
R2L_wtn[5] 8.2008665517918844e-01
R2L_wtn[6] 9.2430510781396813e-01
R2L_wtn[7] 0.948243893342598
R2L_wtn[8] 9.7239888756246229e-01
R2L_wtn[9] 9.9677196677401625e-01
R2L_wtn[10] 9.9903881393423422e-01
R2L_wtn[11] 1.0013261229929789e+00
R2L_wtn[12] 1.0036340779956308e+00
R2L_wtn[13] 1.0282890569204373e+00
R2L_wtn[14] 1.0531664650379366e+00
R2L_wtn[15] 1.0782682371012158e+00
R2L_wtn[16] 1.1035963259091446e+00
R2L_wtn[17] 1.1020506408743687e+00
R2L_wtn[18] 1.1004910217418424e+00
R2L_wtn[19] 1.0989173426333299e+00
R2L_wtn[20] 1.0973294765019679e+00
R2L_wtn[21] 1.0175779680541734e+00
R2L_wtn[22] 9.3710633952817046e-01
R2L_wtn[23] 8.5590718940755506e-01
R2L_wtn[24] 0.552015333933643
R2L_wtn[25] 2.9900000000000005e-05
R2L_T 1.4387040581126240e+02
R2L_varpi[0] 60
R2L_varpi[1] 2.4186395452527620e+01
R2L_varpi[2] 1.4731861047928859e+01
R2L_varpi[3] 1.4731861036348647e+01
R2L_varpi[4] 1.4731861120149677e+01
R2L_varpi[5] 1.4731861114801585e+01
R2L_varpi[6] 1.4731861109989627e+01
R2L_varpi[7] 1.4731861109989460e+01
R2L_varpi[8] 1.4731861092734214e+01
R2L_varpi[9] 1.4731861092734007e+01
R2L_varpi[10] 1.4731861092734032e+01
R2L_varpi[11] 1.4731861088720658e+01
R2L_varpi[12] 1.4731861088720446e+01
R2L_varpi[13] 1.4731861088720134e+01
R2L_varpi[14] 1.4731861088719917e+01
R2L_varpi[15] 1.4731861071958303e+01
R2L_varpi[16] 1.4731861062844331e+01
R2L_varpi[17] 1.4731861062844168e+01
R2L_varpi[18] 1.4731861057863719e+01
R2L_varpi[19] 1.4731861052403097e+01
R2L_varpi[20] 14.7318610524031
R2L_varpi[21] 1.4731861052403275e+01
R2L_varpi[22] 1.4731861040206930e+01
R2L_varpi[23] 2.3473540897711427e+01
R2L_varpi[24] 4.6053896658752492e+01
R2L_varpi[25] 60
R2L_kappa_plus[0] 0
R2L_kappa_plus[1] 4.9061445234249470e+02
R2L_kappa_plus[2] 3.8154920282805017e+02
R2L_kappa_plus[3] 2.3290247769004448e-07
R2L_kappa_plus[4] 0
R2L_kappa_plus[5] 0
R2L_kappa_plus[6] 3.8154920354396739e+02
R2L_kappa_plus[7] 0
R2L_kappa_plus[8] 0
R2L_kappa_plus[9] 0
R2L_kappa_plus[10] 0
R2L_kappa_plus[11] 0
R2L_kappa_plus[12] 0
R2L_kappa_plus[13] 0
R2L_kappa_plus[14] 3.8154920329860687e+02
R2L_kappa_plus[15] 3.8154920329860948e+02
R2L_kappa_plus[16] 3.8154920300011128e+02
R2L_kappa_plus[17] 0
R2L_kappa_plus[18] 0
R2L_kappa_plus[19] 3.8154920287966291e+02
R2L_kappa_plus[20] 0
R2L_kappa_plus[21] 0
R2L_kappa_plus[22] 3.8154920287966610e+02
R2L_kappa_plus[23] 0
R2L_kappa_plus[24] 500
R2L_kappa_plus[25] 0
R2L_kappa_minus[0] 0
R2L_kappa_minus[1] 2.2222222222222223e+02
R2L_kappa_minus[2] 2.2222222222222223e+02
R2L_kappa_minus[3] 0
R2L_kappa_minus[4] 0
R2L_kappa_minus[5] 3.8154920368446284e+02
R2L_kappa_minus[6] 0
R2L_kappa_minus[7] 0
R2L_kappa_minus[8] 0
R2L_kappa_minus[9] 3.8154920334491152e+02
R2L_kappa_minus[10] 0
R2L_kappa_minus[11] 0
R2L_kappa_minus[12] 0
R2L_kappa_minus[13] 3.8154920329861005e+02
R2L_kappa_minus[14] 0
R2L_kappa_minus[15] 0
R2L_kappa_minus[16] 0
R2L_kappa_minus[17] 0
R2L_kappa_minus[18] 0
R2L_kappa_minus[19] 0
R2L_kappa_minus[20] 0
R2L_kappa_minus[21] 0
R2L_kappa_minus[22] 0
R2L_kappa_minus[23] 4.8239113273812160e+02
R2L_kappa_minus[24] 500
R2L_kappa_minus[25] 500
R2L_xi[1] 8.2487658779081630e+03
R2L_xi[2] 2.8528038508714117e+03
R2L_xi[3] 1.4590956501399087e-06
R2L_xi[4] 8.3288955124238886e-07
R2L_xi[5] 0
R2L_xi[6] 6.0630680513362764e-07
R2L_xi[7] 0
R2L_xi[8] 2.1862839980713048e-07
R2L_xi[9] 0
R2L_xi[10] 0
R2L_xi[11] 5.0565830019877493e-07
R2L_xi[12] 0
R2L_xi[13] 0
R2L_xi[14] 0
R2L_xi[15] 5.4090235425974291e-07
R2L_xi[16] 5.6059595954138824e-07
R2L_xi[17] 0
R2L_xi[18] 6.2753600286669139e-07
R2L_xi[19] 6.8804891384388632e-07
R2L_xi[20] 0
R2L_xi[21] 0
R2L_xi[22] 1.5367167716249250e-06
R2L_xi[23] 0
R2L_xi[24] 0
R2L_xi[25] 0
